2433.97
0 1 3 2 6 10 14 17 13 21 15 0
0 9 8 7 11 19 18 12 32 28 30 27 50 46 0
0 22 20 37 35 38 25 31 29 33 36 42 44 40 43 57 0
0 26 24 58 55 51 47 71 0
0 59 60 34 41 39 0
0 62 61 66 45 48 52 49 0
0 63 67 56 53 54 0
0 68 64 65 72 69 16 23 73 70 0
0 4 75 5 74 0
